1 
5 
12 
1 
4 
1 
5 
2 
7 
1 
4 
6 
4 
7 
2 
12 
1 
8 
1 
3 
3 
10 
2 
3 
6 
6 
10 
10 
7 
2 
5 
9 
1 
4 
8 
7 
6 
12 
6 
9 
2 
7 
7 
7 
5 
4 
7 
8 
1 
1 
7 
5 
4 
2 
6 
5 
2 
5 
5 
6 
2 
3 
3 
10 
3 
3 
6 
3 
1 
10 
11 
5 
5 
9 
3 
5 
6 
4 
4 
6 
8 
4 
3 
8 
3 
6 
4 
5 
1 
3 
11 
2 
7 
6 
7 
7 
6 
12 
3 
7 
